NAME : 50_4_02.56564.tour
COMMENT : Cost = 0_56564
COMMENT : Found by LKH [Keld Helsgaun] Thu Sep 14 11:08:20 2017
TYPE : TOUR
DIMENSION : 54
TOUR_SECTION
1
43
27
42
23
24
31
33
32
25
12
26
10
11
13
17
19
22
18
21
44
28
53
5
2
8
29
7
9
30
52
3
54
34
49
36
37
48
38
51
45
50
47
46
39
20
16
15
14
41
40
4
35
6
-1
EOF
